60778
0 26 4123
26 32 4053
32 41 4807
41 24 1886
24 30 299
30 10 732
10 44 436
44 51 722
51 1 598
1 13 433
13 8 471
8 11 723
11 17 768
17 3 606
3 29 380
29 46 944
46 33 702
33 53 401
53 16 1381
16 47 415
47 18 897
18 48 934
48 31 1801
31 40 362
40 43 1000
43 7 383
7 37 368
37 23 802
23 4 612
4 34 323
34 19 810
19 49 763
49 6 1609
6 36 517
36 50 590
50 39 1042
39 12 1572
12 42 790
42 2 1096
2 5 385
5 27 404
27 25 883
25 54 397
54 9 2434
9 21 117
21 28 544
28 20 516
20 22 176
22 52 388
52 14 2086
14 15 556
15 38 451
38 35 503
35 45 402
45 0 9385
